p cnf 70 35
-20 48 -58 0
2 54 -13 0
65 -20 66 0
-11 -43 -47 0
43 -33 -61 0
-41 22 -40 0
23 33 -10 0
-61 51 -42 0
67 12 -34 0
-12 30 34 0
-17 23 -31 0
57 21 -54 0
56 -62 49 0
28 -62 -7 0
45 49 -48 0
58 -34 37 0
-28 -6 -19 0
64 9 19 0
44 -21 20 0
2 9 -63 0
-3 38 -40 0
34 2 21 0
3 57 15 0
69 54 59 0
52 -19 -11 0
-26 -22 -62 0
51 -52 26 0
38 13 24 0
17 25 -18 0
-65 29 -25 0
34 -53 -26 0
4 -8 -65 0
62 17 51 0
48 30 -66 0
-4 28 45 0
